p cnf 7230 17
2034 4360 4386 6187 -6299 0
-2034 -6300 0
2038 4384 6193 -6301 0
-2038 -6302 0
-4360 -6300 0
-5343 -6191 -6297 0
5343 -6298 0
-4384 -6302 0
-4386 -6300 0
6301 6302 0
6299 6300 0
6297 6298 0
6191 -6298 0
-6193 -6302 0
-6187 -6300 0
6189 -6304 0
6295 6296 0
